p cnf 56 1405
-1 -12 0
-1 -15 0
-1 -17 0
-1 -2 0
-1 -20 0
-1 -23 0
-1 -25 0
-1 -28 0
-1 -3 0
-1 -31 0
-1 -33 0
-1 -36 0
-1 -39 0
-1 -4 0
-1 -41 0
-1 -44 0
-1 -47 0
-1 -49 0
-1 -5 0
-1 -52 0
-1 -55 0
-1 -6 0
-1 -7 0
-1 -8 0
-1 -9 0
-10 -11 0
-10 -12 0
-10 -13 0
-10 -14 0
-10 -15 0
-10 -16 0
-10 -18 0
-10 -19 0
-10 -2 0
-10 -23 0
-10 -24 0
-10 -26 0
-10 -27 0
-10 -3 0
-10 -31 0
-10 -32 0
-10 -34 0
-10 -35 0
-10 -39 0
-10 -40 0
-10 -42 0
-10 -43 0
-10 -47 0
-10 -48 0
-10 -50 0
-10 -51 0
-10 -55 0
-10 -56 0
-10 -7 0
-10 -8 0
-10 -9 0
-11 -10 0
-11 -12 0
-11 -13 0
-11 -14 0
-11 -15 0
-11 -16 0
-11 -18 0
-11 -19 0
-11 -2 0
-11 -23 0
-11 -26 0
-11 -27 0
-11 -3 0
-11 -31 0
-11 -34 0
-11 -35 0
-11 -39 0
-11 -42 0
-11 -43 0
-11 -47 0
-11 -50 0
-11 -51 0
-11 -55 0
-11 -7 0
-11 -9 0
-12 -1 0
-12 -10 0
-12 -11 0
-12 -13 0
-12 -14 0
-12 -15 0
-12 -16 0
-12 -17 0
-12 -20 0
-12 -22 0
-12 -25 0
-12 -28 0
-12 -30 0
-12 -33 0
-12 -36 0
-12 -38 0
-12 -4 0
-12 -41 0
-12 -44 0
-12 -46 0
-12 -49 0
-12 -52 0
-12 -54 0
-12 -6 0
-12 -9 0
-13 -10 0
-13 -11 0
-13 -12 0
-13 -14 0
-13 -15 0
-13 -16 0
-13 -21 0
-13 -23 0
-13 -29 0
-13 -31 0
-13 -37 0
-13 -39 0
-13 -45 0
-13 -47 0
-13 -5 0
-13 -53 0
-13 -55 0
-13 -7 0
-13 -9 0
-14 -10 0
-14 -11 0
-14 -12 0
-14 -13 0
-14 -15 0
-14 -16 0
-14 -20 0
-14 -22 0
-14 -28 0
-14 -30 0
-14 -36 0
-14 -38 0
-14 -4 0
-14 -44 0
-14 -46 0
-14 -52 0
-14 -54 0
-14 -6 0
-14 -9 0
-15 -1 0
-15 -10 0
-15 -11 0
-15 -12 0
-15 -13 0
-15 -14 0
-15 -16 0
-15 -17 0
-15 -18 0
-15 -19 0
-15 -2 0
-15 -21 0
-15 -23 0
-15 -25 0
-15 -26 0
-15 -27 0
-15 -29 0
-15 -3 0
-15 -31 0
-15 -33 0
-15 -34 0
-15 -35 0
-15 -37 0
-15 -39 0
-15 -41 0
-15 -42 0
-15 -43 0
-15 -45 0
-15 -47 0
-15 -49 0
-15 -5 0
-15 -50 0
-15 -51 0
-15 -53 0
-15 -55 0
-15 -7 0
-15 -9 0
-16 -10 0
-16 -11 0
-16 -12 0
-16 -13 0
-16 -14 0
-16 -15 0
-16 -18 0
-16 -2 0
-16 -24 0
-16 -26 0
-16 -32 0
-16 -34 0
-16 -40 0
-16 -42 0
-16 -48 0
-16 -50 0
-16 -56 0
-16 -8 0
-16 -9 0
-17 -1 0
-17 -12 0
-17 -15 0
-17 -18 0
-17 -19 0
-17 -20 0
-17 -21 0
-17 -22 0
-17 -23 0
-17 -24 0
-17 -25 0
-17 -28 0
-17 -31 0
-17 -33 0
-17 -36 0
-17 -39 0
-17 -4 0
-17 -41 0
-17 -44 0
-17 -47 0
-17 -49 0
-17 -52 0
-17 -55 0
-17 -7 0
-17 -9 0
-18 -10 0
-18 -11 0
-18 -15 0
-18 -16 0
-18 -17 0
-18 -19 0
-18 -2 0
-18 -20 0
-18 -21 0
-18 -22 0
-18 -23 0
-18 -24 0
-18 -26 0
-18 -27 0
-18 -3 0
-18 -31 0
-18 -32 0
-18 -34 0
-18 -35 0
-18 -39 0
-18 -40 0
-18 -42 0
-18 -43 0
-18 -47 0
-18 -48 0
-18 -50 0
-18 -51 0
-18 -55 0
-18 -56 0
-18 -7 0
-18 -8 0
-19 -10 0
-19 -11 0
-19 -15 0
-19 -17 0
-19 -18 0
-19 -2 0
-19 -20 0
-19 -21 0
-19 -22 0
-19 -23 0
-19 -24 0
-19 -26 0
-19 -27 0
-19 -3 0
-19 -31 0
-19 -34 0
-19 -35 0
-19 -39 0
-19 -42 0
-19 -43 0
-19 -47 0
-19 -50 0
-19 -51 0
-19 -55 0
-19 -7 0
-2 -1 0
-2 -10 0
-2 -11 0
-2 -15 0
-2 -16 0
-2 -18 0
-2 -19 0
-2 -23 0
-2 -24 0
-2 -26 0
-2 -27 0
-2 -3 0
-2 -31 0
-2 -32 0
-2 -34 0
-2 -35 0
-2 -39 0
-2 -4 0
-2 -40 0
-2 -42 0
-2 -43 0
-2 -47 0
-2 -48 0
-2 -5 0
-2 -50 0
-2 -51 0
-2 -55 0
-2 -56 0
-2 -6 0
-2 -7 0
-2 -8 0
-20 -1 0
-20 -12 0
-20 -14 0
-20 -17 0
-20 -18 0
-20 -19 0
-20 -21 0
-20 -22 0
-20 -23 0
-20 -24 0
-20 -25 0
-20 -28 0
-20 -30 0
-20 -33 0
-20 -36 0
-20 -38 0
-20 -4 0
-20 -41 0
-20 -44 0
-20 -46 0
-20 -49 0
-20 -52 0
-20 -54 0
-20 -6 0
-20 -9 0
-21 -13 0
-21 -15 0
-21 -17 0
-21 -18 0
-21 -19 0
-21 -20 0
-21 -22 0
-21 -23 0
-21 -24 0
-21 -29 0
-21 -31 0
-21 -37 0
-21 -39 0
-21 -45 0
-21 -47 0
-21 -5 0
-21 -53 0
-21 -55 0
-21 -7 0
-22 -12 0
-22 -14 0
-22 -17 0
-22 -18 0
-22 -19 0
-22 -20 0
-22 -21 0
-22 -23 0
-22 -24 0
-22 -28 0
-22 -30 0
-22 -36 0
-22 -38 0
-22 -4 0
-22 -44 0
-22 -46 0
-22 -52 0
-22 -54 0
-22 -6 0
-23 -1 0
-23 -10 0
-23 -11 0
-23 -13 0
-23 -15 0
-23 -17 0
-23 -18 0
-23 -19 0
-23 -2 0
-23 -20 0
-23 -21 0
-23 -22 0
-23 -24 0
-23 -25 0
-23 -26 0
-23 -27 0
-23 -29 0
-23 -3 0
-23 -31 0
-23 -33 0
-23 -34 0
-23 -35 0
-23 -37 0
-23 -39 0
-23 -41 0
-23 -42 0
-23 -43 0
-23 -45 0
-23 -47 0
-23 -49 0
-23 -5 0
-23 -50 0
-23 -51 0
-23 -53 0
-23 -55 0
-23 -7 0
-23 -9 0
-24 -10 0
-24 -16 0
-24 -17 0
-24 -18 0
-24 -19 0
-24 -2 0
-24 -20 0
-24 -21 0
-24 -22 0
-24 -23 0
-24 -26 0
-24 -32 0
-24 -34 0
-24 -40 0
-24 -42 0
-24 -48 0
-24 -50 0
-24 -56 0
-24 -8 0
-25 -1 0
-25 -12 0
-25 -15 0
-25 -17 0
-25 -20 0
-25 -23 0
-25 -26 0
-25 -27 0
-25 -28 0
-25 -29 0
-25 -30 0
-25 -31 0
-25 -32 0
-25 -33 0
-25 -36 0
-25 -39 0
-25 -4 0
-25 -41 0
-25 -44 0
-25 -47 0
-25 -49 0
-25 -52 0
-25 -55 0
-25 -7 0
-25 -9 0
-26 -10 0
-26 -11 0
-26 -15 0
-26 -16 0
-26 -18 0
-26 -19 0
-26 -2 0
-26 -23 0
-26 -24 0
-26 -25 0
-26 -27 0
-26 -28 0
-26 -29 0
-26 -3 0
-26 -30 0
-26 -31 0
-26 -32 0
-26 -34 0
-26 -35 0
-26 -39 0
-26 -40 0
-26 -42 0
-26 -43 0
-26 -47 0
-26 -48 0
-26 -50 0
-26 -51 0
-26 -55 0
-26 -56 0
-26 -7 0
-26 -8 0
-27 -10 0
-27 -11 0
-27 -15 0
-27 -18 0
-27 -19 0
-27 -2 0
-27 -23 0
-27 -25 0
-27 -26 0
-27 -28 0
-27 -29 0
-27 -3 0
-27 -30 0
-27 -31 0
-27 -32 0
-27 -34 0
-27 -35 0
-27 -39 0
-27 -42 0
-27 -43 0
-27 -47 0
-27 -50 0
-27 -51 0
-27 -55 0
-27 -7 0
-28 -1 0
-28 -12 0
-28 -14 0
-28 -17 0
-28 -20 0
-28 -22 0
-28 -25 0
-28 -26 0
-28 -27 0
-28 -29 0
-28 -30 0
-28 -31 0
-28 -32 0
-28 -33 0
-28 -36 0
-28 -38 0
-28 -4 0
-28 -41 0
-28 -44 0
-28 -46 0
-28 -49 0
-28 -52 0
-28 -54 0
-28 -6 0
-28 -9 0
-29 -13 0
-29 -15 0
-29 -21 0
-29 -23 0
-29 -25 0
-29 -26 0
-29 -27 0
-29 -28 0
-29 -30 0
-29 -31 0
-29 -32 0
-29 -37 0
-29 -39 0
-29 -45 0
-29 -47 0
-29 -5 0
-29 -53 0
-29 -55 0
-29 -7 0
-3 -1 0
-3 -10 0
-3 -11 0
-3 -15 0
-3 -18 0
-3 -19 0
-3 -2 0
-3 -23 0
-3 -26 0
-3 -27 0
-3 -31 0
-3 -34 0
-3 -35 0
-3 -39 0
-3 -4 0
-3 -42 0
-3 -43 0
-3 -47 0
-3 -5 0
-3 -50 0
-3 -51 0
-3 -55 0
-3 -6 0
-3 -7 0
-3 -8 0
-30 -12 0
-30 -14 0
-30 -20 0
-30 -22 0
-30 -25 0
-30 -26 0
-30 -27 0
-30 -28 0
-30 -29 0
-30 -31 0
-30 -32 0
-30 -36 0
-30 -38 0
-30 -4 0
-30 -44 0
-30 -46 0
-30 -52 0
-30 -54 0
-30 -6 0
-31 -1 0
-31 -10 0
-31 -11 0
-31 -13 0
-31 -15 0
-31 -17 0
-31 -18 0
-31 -19 0
-31 -2 0
-31 -21 0
-31 -23 0
-31 -25 0
-31 -26 0
-31 -27 0
-31 -28 0
-31 -29 0
-31 -3 0
-31 -30 0
-31 -32 0
-31 -33 0
-31 -34 0
-31 -35 0
-31 -37 0
-31 -39 0
-31 -41 0
-31 -42 0
-31 -43 0
-31 -45 0
-31 -47 0
-31 -49 0
-31 -5 0
-31 -50 0
-31 -51 0
-31 -53 0
-31 -55 0
-31 -7 0
-31 -9 0
-32 -10 0
-32 -16 0
-32 -18 0
-32 -2 0
-32 -24 0
-32 -25 0
-32 -26 0
-32 -27 0
-32 -28 0
-32 -29 0
-32 -30 0
-32 -31 0
-32 -34 0
-32 -40 0
-32 -42 0
-32 -48 0
-32 -50 0
-32 -56 0
-32 -8 0
-33 -1 0
-33 -12 0
-33 -15 0
-33 -17 0
-33 -20 0
-33 -23 0
-33 -25 0
-33 -28 0
-33 -31 0
-33 -34 0
-33 -35 0
-33 -36 0
-33 -37 0
-33 -38 0
-33 -39 0
-33 -4 0
-33 -40 0
-33 -41 0
-33 -44 0
-33 -47 0
-33 -49 0
-33 -52 0
-33 -55 0
-33 -7 0
-33 -9 0
-34 -10 0
-34 -11 0
-34 -15 0
-34 -16 0
-34 -18 0
-34 -19 0
-34 -2 0
-34 -23 0
-34 -24 0
-34 -26 0
-34 -27 0
-34 -3 0
-34 -31 0
-34 -32 0
-34 -33 0
-34 -35 0
-34 -36 0
-34 -37 0
-34 -38 0
-34 -39 0
-34 -40 0
-34 -42 0
-34 -43 0
-34 -47 0
-34 -48 0
-34 -50 0
-34 -51 0
-34 -55 0
-34 -56 0
-34 -7 0
-34 -8 0
-35 -10 0
-35 -11 0
-35 -15 0
-35 -18 0
-35 -19 0
-35 -2 0
-35 -23 0
-35 -26 0
-35 -27 0
-35 -3 0
-35 -31 0
-35 -33 0
-35 -34 0
-35 -36 0
-35 -37 0
-35 -38 0
-35 -39 0
-35 -40 0
-35 -42 0
-35 -43 0
-35 -47 0
-35 -50 0
-35 -51 0
-35 -55 0
-35 -7 0
-36 -1 0
-36 -12 0
-36 -14 0
-36 -17 0
-36 -20 0
-36 -22 0
-36 -25 0
-36 -28 0
-36 -30 0
-36 -33 0
-36 -34 0
-36 -35 0
-36 -37 0
-36 -38 0
-36 -39 0
-36 -4 0
-36 -40 0
-36 -41 0
-36 -44 0
-36 -46 0
-36 -49 0
-36 -52 0
-36 -54 0
-36 -6 0
-36 -9 0
-37 -13 0
-37 -15 0
-37 -21 0
-37 -23 0
-37 -29 0
-37 -31 0
-37 -33 0
-37 -34 0
-37 -35 0
-37 -36 0
-37 -38 0
-37 -39 0
-37 -40 0
-37 -45 0
-37 -47 0
-37 -5 0
-37 -53 0
-37 -55 0
-37 -7 0
-38 -12 0
-38 -14 0
-38 -20 0
-38 -22 0
-38 -28 0
-38 -30 0
-38 -33 0
-38 -34 0
-38 -35 0
-38 -36 0
-38 -37 0
-38 -39 0
-38 -4 0
-38 -40 0
-38 -44 0
-38 -46 0
-38 -52 0
-38 -54 0
-38 -6 0
-39 -1 0
-39 -10 0
-39 -11 0
-39 -13 0
-39 -15 0
-39 -17 0
-39 -18 0
-39 -19 0
-39 -2 0
-39 -21 0
-39 -23 0
-39 -25 0
-39 -26 0
-39 -27 0
-39 -29 0
-39 -3 0
-39 -31 0
-39 -33 0
-39 -34 0
-39 -35 0
-39 -36 0
-39 -37 0
-39 -38 0
-39 -40 0
-39 -41 0
-39 -42 0
-39 -43 0
-39 -45 0
-39 -47 0
-39 -49 0
-39 -5 0
-39 -50 0
-39 -51 0
-39 -53 0
-39 -55 0
-39 -7 0
-39 -9 0
-4 -1 0
-4 -12 0
-4 -14 0
-4 -17 0
-4 -2 0
-4 -20 0
-4 -22 0
-4 -25 0
-4 -28 0
-4 -3 0
-4 -30 0
-4 -33 0
-4 -36 0
-4 -38 0
-4 -41 0
-4 -44 0
-4 -46 0
-4 -49 0
-4 -5 0
-4 -52 0
-4 -54 0
-4 -6 0
-4 -7 0
-4 -8 0
-4 -9 0
-40 -10 0
-40 -16 0
-40 -18 0
-40 -2 0
-40 -24 0
-40 -26 0
-40 -32 0
-40 -33 0
-40 -34 0
-40 -35 0
-40 -36 0
-40 -37 0
-40 -38 0
-40 -39 0
-40 -42 0
-40 -48 0
-40 -50 0
-40 -56 0
-40 -8 0
-41 -1 0
-41 -12 0
-41 -15 0
-41 -17 0
-41 -20 0
-41 -23 0
-41 -25 0
-41 -28 0
-41 -31 0
-41 -33 0
-41 -36 0
-41 -39 0
-41 -4 0
-41 -42 0
-41 -43 0
-41 -44 0
-41 -45 0
-41 -46 0
-41 -47 0
-41 -48 0
-41 -49 0
-41 -52 0
-41 -55 0
-41 -7 0
-41 -9 0
-42 -10 0
-42 -11 0
-42 -15 0
-42 -16 0
-42 -18 0
-42 -19 0
-42 -2 0
-42 -23 0
-42 -24 0
-42 -26 0
-42 -27 0
-42 -3 0
-42 -31 0
-42 -32 0
-42 -34 0
-42 -35 0
-42 -39 0
-42 -40 0
-42 -41 0
-42 -43 0
-42 -44 0
-42 -45 0
-42 -46 0
-42 -47 0
-42 -48 0
-42 -50 0
-42 -51 0
-42 -55 0
-42 -56 0
-42 -7 0
-42 -8 0
-43 -10 0
-43 -11 0
-43 -15 0
-43 -18 0
-43 -19 0
-43 -2 0
-43 -23 0
-43 -26 0
-43 -27 0
-43 -3 0
-43 -31 0
-43 -34 0
-43 -35 0
-43 -39 0
-43 -41 0
-43 -42 0
-43 -44 0
-43 -45 0
-43 -46 0
-43 -47 0
-43 -48 0
-43 -50 0
-43 -51 0
-43 -55 0
-43 -7 0
-44 -1 0
-44 -12 0
-44 -14 0
-44 -17 0
-44 -20 0
-44 -22 0
-44 -25 0
-44 -28 0
-44 -30 0
-44 -33 0
-44 -36 0
-44 -38 0
-44 -4 0
-44 -41 0
-44 -42 0
-44 -43 0
-44 -45 0
-44 -46 0
-44 -47 0
-44 -48 0
-44 -49 0
-44 -52 0
-44 -54 0
-44 -6 0
-44 -9 0
-45 -13 0
-45 -15 0
-45 -21 0
-45 -23 0
-45 -29 0
-45 -31 0
-45 -37 0
-45 -39 0
-45 -41 0
-45 -42 0
-45 -43 0
-45 -44 0
-45 -46 0
-45 -47 0
-45 -48 0
-45 -5 0
-45 -53 0
-45 -55 0
-45 -7 0
-46 -12 0
-46 -14 0
-46 -20 0
-46 -22 0
-46 -28 0
-46 -30 0
-46 -36 0
-46 -38 0
-46 -4 0
-46 -41 0
-46 -42 0
-46 -43 0
-46 -44 0
-46 -45 0
-46 -47 0
-46 -48 0
-46 -52 0
-46 -54 0
-46 -6 0
-47 -1 0
-47 -10 0
-47 -11 0
-47 -13 0
-47 -15 0
-47 -17 0
-47 -18 0
-47 -19 0
-47 -2 0
-47 -21 0
-47 -23 0
-47 -25 0
-47 -26 0
-47 -27 0
-47 -29 0
-47 -3 0
-47 -31 0
-47 -33 0
-47 -34 0
-47 -35 0
-47 -37 0
-47 -39 0
-47 -41 0
-47 -42 0
-47 -43 0
-47 -44 0
-47 -45 0
-47 -46 0
-47 -48 0
-47 -49 0
-47 -5 0
-47 -50 0
-47 -51 0
-47 -53 0
-47 -55 0
-47 -7 0
-47 -9 0
-48 -10 0
-48 -16 0
-48 -18 0
-48 -2 0
-48 -24 0
-48 -26 0
-48 -32 0
-48 -34 0
-48 -40 0
-48 -41 0
-48 -42 0
-48 -43 0
-48 -44 0
-48 -45 0
-48 -46 0
-48 -47 0
-48 -50 0
-48 -56 0
-48 -8 0
-49 -1 0
-49 -12 0
-49 -15 0
-49 -17 0
-49 -20 0
-49 -23 0
-49 -25 0
-49 -28 0
-49 -31 0
-49 -33 0
-49 -36 0
-49 -39 0
-49 -4 0
-49 -41 0
-49 -44 0
-49 -47 0
-49 -50 0
-49 -51 0
-49 -52 0
-49 -53 0
-49 -54 0
-49 -55 0
-49 -56 0
-49 -7 0
-49 -9 0
-5 -1 0
-5 -13 0
-5 -15 0
-5 -2 0
-5 -21 0
-5 -23 0
-5 -29 0
-5 -3 0
-5 -31 0
-5 -37 0
-5 -39 0
-5 -4 0
-5 -45 0
-5 -47 0
-5 -53 0
-5 -55 0
-5 -6 0
-5 -7 0
-5 -8 0
-50 -10 0
-50 -11 0
-50 -15 0
-50 -16 0
-50 -18 0
-50 -19 0
-50 -2 0
-50 -23 0
-50 -24 0
-50 -26 0
-50 -27 0
-50 -3 0
-50 -31 0
-50 -32 0
-50 -34 0
-50 -35 0
-50 -39 0
-50 -40 0
-50 -42 0
-50 -43 0
-50 -47 0
-50 -48 0
-50 -49 0
-50 -51 0
-50 -52 0
-50 -53 0
-50 -54 0
-50 -55 0
-50 -56 0
-50 -7 0
-50 -8 0
-51 -10 0
-51 -11 0
-51 -15 0
-51 -18 0
-51 -19 0
-51 -2 0
-51 -23 0
-51 -26 0
-51 -27 0
-51 -3 0
-51 -31 0
-51 -34 0
-51 -35 0
-51 -39 0
-51 -42 0
-51 -43 0
-51 -47 0
-51 -49 0
-51 -50 0
-51 -52 0
-51 -53 0
-51 -54 0
-51 -55 0
-51 -56 0
-51 -7 0
-52 -1 0
-52 -12 0
-52 -14 0
-52 -17 0
-52 -20 0
-52 -22 0
-52 -25 0
-52 -28 0
-52 -30 0
-52 -33 0
-52 -36 0
-52 -38 0
-52 -4 0
-52 -41 0
-52 -44 0
-52 -46 0
-52 -49 0
-52 -50 0
-52 -51 0
-52 -53 0
-52 -54 0
-52 -55 0
-52 -56 0
-52 -6 0
-52 -9 0
-53 -13 0
-53 -15 0
-53 -21 0
-53 -23 0
-53 -29 0
-53 -31 0
-53 -37 0
-53 -39 0
-53 -45 0
-53 -47 0
-53 -49 0
-53 -5 0
-53 -50 0
-53 -51 0
-53 -52 0
-53 -54 0
-53 -55 0
-53 -56 0
-53 -7 0
-54 -12 0
-54 -14 0
-54 -20 0
-54 -22 0
-54 -28 0
-54 -30 0
-54 -36 0
-54 -38 0
-54 -4 0
-54 -44 0
-54 -46 0
-54 -49 0
-54 -50 0
-54 -51 0
-54 -52 0
-54 -53 0
-54 -55 0
-54 -56 0
-54 -6 0
-55 -1 0
-55 -10 0
-55 -11 0
-55 -13 0
-55 -15 0
-55 -17 0
-55 -18 0
-55 -19 0
-55 -2 0
-55 -21 0
-55 -23 0
-55 -25 0
-55 -26 0
-55 -27 0
-55 -29 0
-55 -3 0
-55 -31 0
-55 -33 0
-55 -34 0
-55 -35 0
-55 -37 0
-55 -39 0
-55 -41 0
-55 -42 0
-55 -43 0
-55 -45 0
-55 -47 0
-55 -49 0
-55 -5 0
-55 -50 0
-55 -51 0
-55 -52 0
-55 -53 0
-55 -54 0
-55 -56 0
-55 -7 0
-55 -9 0
-56 -10 0
-56 -16 0
-56 -18 0
-56 -2 0
-56 -24 0
-56 -26 0
-56 -32 0
-56 -34 0
-56 -40 0
-56 -42 0
-56 -48 0
-56 -49 0
-56 -50 0
-56 -51 0
-56 -52 0
-56 -53 0
-56 -54 0
-56 -55 0
-56 -8 0
-6 -1 0
-6 -12 0
-6 -14 0
-6 -2 0
-6 -20 0
-6 -22 0
-6 -28 0
-6 -3 0
-6 -30 0
-6 -36 0
-6 -38 0
-6 -4 0
-6 -44 0
-6 -46 0
-6 -5 0
-6 -52 0
-6 -54 0
-6 -7 0
-6 -8 0
-7 -1 0
-7 -10 0
-7 -11 0
-7 -13 0
-7 -15 0
-7 -17 0
-7 -18 0
-7 -19 0
-7 -2 0
-7 -21 0
-7 -23 0
-7 -25 0
-7 -26 0
-7 -27 0
-7 -29 0
-7 -3 0
-7 -31 0
-7 -33 0
-7 -34 0
-7 -35 0
-7 -37 0
-7 -39 0
-7 -4 0
-7 -41 0
-7 -42 0
-7 -43 0
-7 -45 0
-7 -47 0
-7 -49 0
-7 -5 0
-7 -50 0
-7 -51 0
-7 -53 0
-7 -55 0
-7 -6 0
-7 -8 0
-7 -9 0
-8 -1 0
-8 -10 0
-8 -16 0
-8 -18 0
-8 -2 0
-8 -24 0
-8 -26 0
-8 -3 0
-8 -32 0
-8 -34 0
-8 -4 0
-8 -40 0
-8 -42 0
-8 -48 0
-8 -5 0
-8 -50 0
-8 -56 0
-8 -6 0
-8 -7 0
-9 -1 0
-9 -10 0
-9 -11 0
-9 -12 0
-9 -13 0
-9 -14 0
-9 -15 0
-9 -16 0
-9 -17 0
-9 -20 0
-9 -23 0
-9 -25 0
-9 -28 0
-9 -31 0
-9 -33 0
-9 -36 0
-9 -39 0
-9 -4 0
-9 -41 0
-9 -44 0
-9 -47 0
-9 -49 0
-9 -52 0
-9 -55 0
-9 -7 0
1 2 3 4 5 6 7 8 0
17 18 19 20 21 22 23 24 0
25 26 27 28 29 30 31 32 0
33 34 35 36 37 38 39 40 0
9 10 11 12 13 14 15 16 0
